Cu 
 1.0000000000000000
     0.0000000000000000    1.8049999999999999    1.8049999999999999
     1.8049999999999999    0.0000000000000000    1.8049999999999999
     1.8049999999999999    1.8049999999999999    0.0000000000000000
 Cu 
   1
Cartesian
  0.0000000000000000  0.0000000000000000  0.0000000000000000
